proyfinal/src/viki/013/experimentInOfficeAgust.take6.output/859e0d30-1c6a-41cd-8ce4-9913fb69b2bc.als.out
Reading from standard input... Use '--help' for help.
============================[ Problem Statistics ]=============================
|                                                                             |
|  Number of variables:         87638                                         |
|  Number of clauses:          161767                                         |
|  Parse time:                   0.04 s                                       |
|                                                                             |
============================[ Search Statistics ]==============================
| Conflicts |          ORIGINAL         |          LEARNT          | Progress |
|           |    Vars  Clauses Literals |    Limit  Clauses Lit/Cl |          |
===============================================================================
|       100 |   53920   106456   265996 |    39033       98     10 | 38.474 % |
|       250 |   53920    80731   202782 |    42937      247     47 | 38.474 % |
|       475 |   53915    80671   202648 |    47230      435     43 | 38.480 % |
|       812 |   53887    80571   202419 |    51954      770     44 | 38.512 % |
|      1318 |   53863    80463   202133 |    57149     1239     37 | 38.539 % |
|      2077 |   53638    79537   199865 |    62864     1921     60 | 38.796 % |
|      3216 |   53048    77652   194792 |    69150     3000     65 | 39.469 % |
|      4924 |   52294    74622   187489 |    76065     4532     61 | 40.330 % |
|      7486 |   51965    73396   184552 |    83672     6473     55 | 40.705 % |
|     11330 |   51832    72687   182853 |    92039     9847     54 | 40.857 % |
===============================================================================
restarts              : 62
conflicts             : 15133          (9675 /sec)
decisions             : 56297          (0.00 % random) (35991 /sec)
propagations          : 16957142       (10840942 /sec)
conflict literals     : 763295         (41.10 % deleted)
Memory used           : 30.01 MB
CPU time              : 1.56418 s

UNSATISFIABLE
